/*********************************************
 * OPL 12.6.0.0 Data
 * Author: Adrian Rodriguez Bazaga, Pau Rodriguez Esmerats
 * Creation Date: 06/12/2017 at 23:02:58
 *********************************************/

nNurses=176;
maxConsec=2;
maxPresence=7;
maxHours=5;
minHours=1;
hours=24;
demand= [26 34 50 42 34 50 42 36 37 21 2 7 3 11 7 9 7 6 5 4 25 29 8 34  ];
